HUN,8,6,301
0,29,5,29,4,27,1,22,2,27,3,30
4,30,1,25,2,30,5,25,0,30,3,24
4,22,2,25,1,26,3,27,5,29,0,29
5,22,1,24,4,24,2,27,0,23,3,28
0,30,5,21,4,27,3,21,1,27,2,27
3,27,0,29,4,25,5,29,1,23,2,30
5,22,3,26,0,27,4,29,1,25,2,27
2,29,0,29,3,21,1,29,4,25,5,22
